\ENCODING=ISO-8859-1
\Problem name: ilog.cplex

Minimize
 obj: l(0)
Subject To
 c1:   y(0) + l(0) >= 336
 c2:   y(0) - u(0) - Rgc2  = 0
 c3:   x(0,1,0,2,5,3)(0) + x(0,1,0,2,5,3)(1) + x(0,1,0,2,5,3)(2)
       + x(0,1,0,2,5,3)(3)  = 335
 c4:   x(0,1,0,2,5,3)(0) - xNG(0,1,0,2,5,3)  = 0
 c5:   x(0,1,0,2,5,3)(1) - xPB(0,1,0,2,5,3)(0) - xPB(0,1,0,2,5,3)(1)
       - xPB(0,1,0,2,5,3)(2) - xPB(0,1,0,2,5,3)(3) - xPB(0,1,0,2,5,3)(4)  = 0
 c6:   x(0,1,0,2,5,3)(2) - xGS(0,1,0,2,5,3)(0) - xGS(0,1,0,2,5,3)(1)
       - xGS(0,1,0,2,5,3)(2) - xGS(0,1,0,2,5,3)(3) - xGS(0,1,0,2,5,3)(4)  = 0
 c7:   x(0,1,0,2,5,3)(3) - xEAe(0,1,0,2,5,3)(1) - xEAe'(0,1,0,2,5,3)(1)(5)  = 0
 c8:   xEAe(0,1,0,2,5,3)(5)  = 0
 c9:   xEAe(0,1,0,2,5,3)(1) - xEAe(0,1,0,2,5,3)(2) - xEAe'(0,1,0,2,5,3)(2)(5)
        = 0
 c10:  xEAe(0,1,0,2,5,3)(2) - xEAe(0,1,0,2,5,3)(3) - xEAe'(0,1,0,2,5,3)(3)(5)
        = 0
 c11:  xEAe(0,1,0,2,5,3)(3) - xEAe(0,1,0,2,5,3)(4) - xEAe'(0,1,0,2,5,3)(4)(5)
        = 0
 c12:  xEAe(0,1,0,2,5,3)(4) - xEAe(0,1,0,2,5,3)(5) - xEAe'(0,1,0,2,5,3)(5)(5)
        = 0
 c13:  xEAr(0,1,0,2,0)(2)(1) - xEAr(0,1,0,2,0)(3)(2)
       - xEAr'(0,1,0,2,0)(3)(2)(0)  = 0
 c14:  xEAr(0,1,0,2,0)(3)(1) - xEAr(0,1,0,2,0)(4)(2)
       - xEAr'(0,1,0,2,0)(4)(2)(0)  = 0
 c15:  xEAr(0,1,0,2,0)(3)(2) - xEAr(0,1,0,2,0)(4)(3)
       - xEAr'(0,1,0,2,0)(4)(3)(0)  = 0
 c16:  xEAr(0,1,0,2,0)(4)(1) - xEAr(0,1,0,2,0)(5)(2)
       - xEAr'(0,1,0,2,0)(5)(2)(0)  = 0
 c17:  xEAr(0,1,0,2,0)(4)(2) - xEAr(0,1,0,2,0)(5)(3)
       - xEAr'(0,1,0,2,0)(5)(3)(0)  = 0
 c18:  xEAr(0,1,0,2,0)(4)(3) - xEAr(0,1,0,2,0)(5)(4)
       - xEAr'(0,1,0,2,0)(5)(4)(0)  = 0
 c19:  xEAr(0,1,0,2,1)(2)(1) - xEAr(0,1,0,2,1)(3)(2)
       - xEAr'(0,1,0,2,1)(3)(2)(1)  = 0
 c20:  xEAr(0,1,0,2,1)(3)(1) - xEAr(0,1,0,2,1)(4)(2)
       - xEAr'(0,1,0,2,1)(4)(2)(1)  = 0
 c21:  xEAr(0,1,0,2,1)(3)(2) - xEAr(0,1,0,2,1)(4)(3)
       - xEAr'(0,1,0,2,1)(4)(3)(1)  = 0
 c22:  xEAr(0,1,0,2,1)(4)(1) - xEAr(0,1,0,2,1)(5)(2)
       - xEAr'(0,1,0,2,1)(5)(2)(1)  = 0
 c23:  xEAr(0,1,0,2,1)(4)(2) - xEAr(0,1,0,2,1)(5)(3)
       - xEAr'(0,1,0,2,1)(5)(3)(1)  = 0
 c24:  xEAr(0,1,0,2,1)(4)(3) - xEAr(0,1,0,2,1)(5)(4)
       - xEAr'(0,1,0,2,1)(5)(4)(1)  = 0
 c25:  xEAr(0,1,0,2,2)(2)(1) - xEAr(0,1,0,2,2)(3)(2)
       - xEAr'(0,1,0,2,2)(3)(2)(2)  = 0
 c26:  xEAr(0,1,0,2,2)(3)(1) - xEAr(0,1,0,2,2)(4)(2)
       - xEAr'(0,1,0,2,2)(4)(2)(2)  = 0
 c27:  xEAr(0,1,0,2,2)(3)(2) - xEAr(0,1,0,2,2)(4)(3)
       - xEAr'(0,1,0,2,2)(4)(3)(2)  = 0
 c28:  xEAr(0,1,0,2,2)(4)(1) - xEAr(0,1,0,2,2)(5)(2)
       - xEAr'(0,1,0,2,2)(5)(2)(2)  = 0
 c29:  xEAr(0,1,0,2,2)(4)(2) - xEAr(0,1,0,2,2)(5)(3)
       - xEAr'(0,1,0,2,2)(5)(3)(2)  = 0
 c30:  xEAr(0,1,0,2,2)(4)(3) - xEAr(0,1,0,2,2)(5)(4)
       - xEAr'(0,1,0,2,2)(5)(4)(2)  = 0
 c31:  xEAr(0,1,0,2,3)(2)(1) - xEAr(0,1,0,2,3)(3)(2)
       - xEAr'(0,1,0,2,3)(3)(2)(3)  = 0
 c32:  xEAr(0,1,0,2,3)(3)(1) - xEAr(0,1,0,2,3)(4)(2)
       - xEAr'(0,1,0,2,3)(4)(2)(3)  = 0
 c33:  xEAr(0,1,0,2,3)(3)(2) - xEAr(0,1,0,2,3)(4)(3)
       - xEAr'(0,1,0,2,3)(4)(3)(3)  = 0
 c34:  xEAr(0,1,0,2,3)(4)(1) - xEAr(0,1,0,2,3)(5)(2)
       - xEAr'(0,1,0,2,3)(5)(2)(3)  = 0
 c35:  xEAr(0,1,0,2,3)(4)(2) - xEAr(0,1,0,2,3)(5)(3)
       - xEAr'(0,1,0,2,3)(5)(3)(3)  = 0
 c36:  xEAr(0,1,0,2,3)(4)(3) - xEAr(0,1,0,2,3)(5)(4)
       - xEAr'(0,1,0,2,3)(5)(4)(3)  = 0
 c37:  xEAr(0,1,0,2,4)(2)(1) - xEAr(0,1,0,2,4)(3)(2)
       - xEAr'(0,1,0,2,4)(3)(2)(4)  = 0
 c38:  xEAr(0,1,0,2,4)(3)(1) - xEAr(0,1,0,2,4)(4)(2)
       - xEAr'(0,1,0,2,4)(4)(2)(4)  = 0
 c39:  xEAr(0,1,0,2,4)(3)(2) - xEAr(0,1,0,2,4)(4)(3)
       - xEAr'(0,1,0,2,4)(4)(3)(4)  = 0
 c40:  xEAr(0,1,0,2,4)(4)(1) - xEAr(0,1,0,2,4)(5)(2)
       - xEAr'(0,1,0,2,4)(5)(2)(4)  = 0
 c41:  xEAr(0,1,0,2,4)(4)(2) - xEAr(0,1,0,2,4)(5)(3)
       - xEAr'(0,1,0,2,4)(5)(3)(4)  = 0
 c42:  xEAr(0,1,0,2,4)(4)(3) - xEAr(0,1,0,2,4)(5)(4)
       - xEAr'(0,1,0,2,4)(5)(4)(4)  = 0
 c43:  xEAr(0,1,0,2,5)(2)(1) - xEAr(0,1,0,2,5)(3)(2)
       - xEAr'(0,1,0,2,5)(3)(2)(5)  = 0
 c44:  xEAr(0,1,0,2,5)(3)(1) - xEAr(0,1,0,2,5)(4)(2)
       - xEAr'(0,1,0,2,5)(4)(2)(5)  = 0
 c45:  xEAr(0,1,0,2,5)(3)(2) - xEAr(0,1,0,2,5)(4)(3)
       - xEAr'(0,1,0,2,5)(4)(3)(5)  = 0
 c46:  xEAr(0,1,0,2,5)(4)(1) - xEAr(0,1,0,2,5)(5)(2)
       - xEAr'(0,1,0,2,5)(5)(2)(5)  = 0
 c47:  xEAr(0,1,0,2,5)(4)(2) - xEAr(0,1,0,2,5)(5)(3)
       - xEAr'(0,1,0,2,5)(5)(3)(5)  = 0
 c48:  xEAr(0,1,0,2,5)(4)(3) - xEAr(0,1,0,2,5)(5)(4)
       - xEAr'(0,1,0,2,5)(5)(4)(5)  = 0
 c49:  xEAr(0,1,0,2,6)(2)(1) - xEAr(0,1,0,2,6)(3)(2)
       - xEAr'(0,1,0,2,6)(3)(2)(6)  = 0
 c50:  xEAr(0,1,0,2,6)(3)(1) - xEAr(0,1,0,2,6)(4)(2)
       - xEAr'(0,1,0,2,6)(4)(2)(6)  = 0
 c51:  xEAr(0,1,0,2,6)(3)(2) - xEAr(0,1,0,2,6)(4)(3)
       - xEAr'(0,1,0,2,6)(4)(3)(6)  = 0
 c52:  xEAr(0,1,0,2,6)(4)(1) - xEAr(0,1,0,2,6)(5)(2)
       - xEAr'(0,1,0,2,6)(5)(2)(6)  = 0
 c53:  xEAr(0,1,0,2,6)(4)(2) - xEAr(0,1,0,2,6)(5)(3)
       - xEAr'(0,1,0,2,6)(5)(3)(6)  = 0
 c54:  xEAr(0,1,0,2,6)(4)(3) - xEAr(0,1,0,2,6)(5)(4)
       - xEAr'(0,1,0,2,6)(5)(4)(6)  = 0
 c55:  xEAr(0,1,0,2,7)(2)(1) - xEAr(0,1,0,2,7)(3)(2)
       - xEAr'(0,1,0,2,7)(3)(2)(7)  = 0
 c56:  xEAr(0,1,0,2,7)(3)(1) - xEAr(0,1,0,2,7)(4)(2)
       - xEAr'(0,1,0,2,7)(4)(2)(7)  = 0
 c57:  xEAr(0,1,0,2,7)(3)(2) - xEAr(0,1,0,2,7)(4)(3)
       - xEAr'(0,1,0,2,7)(4)(3)(7)  = 0
 c58:  xEAr(0,1,0,2,7)(4)(1) - xEAr(0,1,0,2,7)(5)(2)
       - xEAr'(0,1,0,2,7)(5)(2)(7)  = 0
 c59:  xEAr(0,1,0,2,7)(4)(2) - xEAr(0,1,0,2,7)(5)(3)
       - xEAr'(0,1,0,2,7)(5)(3)(7)  = 0
 c60:  xEAr(0,1,0,2,7)(4)(3) - xEAr(0,1,0,2,7)(5)(4)
       - xEAr'(0,1,0,2,7)(5)(4)(7)  = 0
 c61:  - xEAr(0,1,0,2,0)(2)(1) - xEAr'(0,1,0,2,0)(2)(1)(0)  = 0
 c62:  - xEAr(0,1,0,2,1)(2)(1) - xEAr'(0,1,0,2,1)(2)(1)(1)  = 0
 c63:  - xEAr(0,1,0,2,2)(2)(1) - xEAr'(0,1,0,2,2)(2)(1)(2)  = 0
 c64:  - xEAr(0,1,0,2,3)(2)(1) - xEAr'(0,1,0,2,3)(2)(1)(3)  = 0
 c65:  - xEAr(0,1,0,2,4)(2)(1) - xEAr'(0,1,0,2,4)(2)(1)(4)  = 0
 c66:  xEAe'(0,1,0,2,5,3)(1)(5) - xEAr(0,1,0,2,5)(2)(1)
       - xEAr'(0,1,0,2,5)(2)(1)(5)  = 0
 c67:  - xEAr(0,1,0,2,6)(2)(1) - xEAr'(0,1,0,2,6)(2)(1)(6)  = 0
 c68:  - xEAr(0,1,0,2,7)(2)(1) - xEAr'(0,1,0,2,7)(2)(1)(7)  = 0
 c69:  - xEAr(0,1,0,2,0)(3)(1) + xEAr'(0,1,0,2,0)(2)(1)(0)
       - xEAr'(0,1,0,2,0)(3)(1)(0)  = 0
 c70:  - xEAr(0,1,0,2,1)(3)(1) + xEAr'(0,1,0,2,1)(2)(1)(1)
       - xEAr'(0,1,0,2,1)(3)(1)(1)  = 0
 c71:  - xEAr(0,1,0,2,2)(3)(1) + xEAr'(0,1,0,2,2)(2)(1)(2)
       - xEAr'(0,1,0,2,2)(3)(1)(2)  = 0
 c72:  - xEAr(0,1,0,2,3)(3)(1) + xEAr'(0,1,0,2,3)(2)(1)(3)
       - xEAr'(0,1,0,2,3)(3)(1)(3)  = 0
 c73:  - xEAr(0,1,0,2,4)(3)(1) + xEAr'(0,1,0,2,4)(2)(1)(4)
       - xEAr'(0,1,0,2,4)(3)(1)(4)  = 0
 c74:  xEAe'(0,1,0,2,5,3)(2)(5) - xEAr(0,1,0,2,5)(3)(1)
       + xEAr'(0,1,0,2,5)(2)(1)(5) - xEAr'(0,1,0,2,5)(3)(1)(5)  = 0
 c75:  - xEAr(0,1,0,2,6)(3)(1) + xEAr'(0,1,0,2,6)(2)(1)(6)
       - xEAr'(0,1,0,2,6)(3)(1)(6)  = 0
 c76:  - xEAr(0,1,0,2,7)(3)(1) + xEAr'(0,1,0,2,7)(2)(1)(7)
       - xEAr'(0,1,0,2,7)(3)(1)(7)  = 0
 c77:  - xEAr(0,1,0,2,0)(4)(1) + xEAr'(0,1,0,2,0)(3)(1)(0)
       + xEAr'(0,1,0,2,0)(3)(2)(0) - xEAr'(0,1,0,2,0)(4)(1)(0)  = 0
 c78:  - xEAr(0,1,0,2,1)(4)(1) + xEAr'(0,1,0,2,1)(3)(1)(1)
       + xEAr'(0,1,0,2,1)(3)(2)(1) - xEAr'(0,1,0,2,1)(4)(1)(1)  = 0
 c79:  - xEAr(0,1,0,2,2)(4)(1) + xEAr'(0,1,0,2,2)(3)(1)(2)
       + xEAr'(0,1,0,2,2)(3)(2)(2) - xEAr'(0,1,0,2,2)(4)(1)(2)  = 0
 c80:  - xEAr(0,1,0,2,3)(4)(1) + xEAr'(0,1,0,2,3)(3)(1)(3)
       + xEAr'(0,1,0,2,3)(3)(2)(3) - xEAr'(0,1,0,2,3)(4)(1)(3)  = 0
 c81:  - xEAr(0,1,0,2,4)(4)(1) + xEAr'(0,1,0,2,4)(3)(1)(4)
       + xEAr'(0,1,0,2,4)(3)(2)(4) - xEAr'(0,1,0,2,4)(4)(1)(4)  = 0
 c82:  xEAe'(0,1,0,2,5,3)(3)(5) - xEAr(0,1,0,2,5)(4)(1)
       + xEAr'(0,1,0,2,5)(3)(1)(5) + xEAr'(0,1,0,2,5)(3)(2)(5)
       - xEAr'(0,1,0,2,5)(4)(1)(5)  = 0
 c83:  - xEAr(0,1,0,2,6)(4)(1) + xEAr'(0,1,0,2,6)(3)(1)(6)
       + xEAr'(0,1,0,2,6)(3)(2)(6) - xEAr'(0,1,0,2,6)(4)(1)(6)  = 0
 c84:  - xEAr(0,1,0,2,7)(4)(1) + xEAr'(0,1,0,2,7)(3)(1)(7)
       + xEAr'(0,1,0,2,7)(3)(2)(7) - xEAr'(0,1,0,2,7)(4)(1)(7)  = 0
 c85:  - xEAr(0,1,0,2,0)(5)(1) + xEAr'(0,1,0,2,0)(4)(1)(0)
       + xEAr'(0,1,0,2,0)(4)(2)(0) + xEAr'(0,1,0,2,0)(4)(3)(0)
       - xEAr'(0,1,0,2,0)(5)(1)(0)  = 0
 c86:  - xEAr(0,1,0,2,1)(5)(1) + xEAr'(0,1,0,2,1)(4)(1)(1)
       + xEAr'(0,1,0,2,1)(4)(2)(1) + xEAr'(0,1,0,2,1)(4)(3)(1)
       - xEAr'(0,1,0,2,1)(5)(1)(1)  = 0
 c87:  - xEAr(0,1,0,2,2)(5)(1) + xEAr'(0,1,0,2,2)(4)(1)(2)
       + xEAr'(0,1,0,2,2)(4)(2)(2) + xEAr'(0,1,0,2,2)(4)(3)(2)
       - xEAr'(0,1,0,2,2)(5)(1)(2)  = 0
 c88:  - xEAr(0,1,0,2,3)(5)(1) + xEAr'(0,1,0,2,3)(4)(1)(3)
       + xEAr'(0,1,0,2,3)(4)(2)(3) + xEAr'(0,1,0,2,3)(4)(3)(3)
       - xEAr'(0,1,0,2,3)(5)(1)(3)  = 0
 c89:  - xEAr(0,1,0,2,4)(5)(1) + xEAr'(0,1,0,2,4)(4)(1)(4)
       + xEAr'(0,1,0,2,4)(4)(2)(4) + xEAr'(0,1,0,2,4)(4)(3)(4)
       - xEAr'(0,1,0,2,4)(5)(1)(4)  = 0
 c90:  xEAe'(0,1,0,2,5,3)(4)(5) - xEAr(0,1,0,2,5)(5)(1)
       + xEAr'(0,1,0,2,5)(4)(1)(5) + xEAr'(0,1,0,2,5)(4)(2)(5)
       + xEAr'(0,1,0,2,5)(4)(3)(5) - xEAr'(0,1,0,2,5)(5)(1)(5)  = 0
 c91:  - xEAr(0,1,0,2,6)(5)(1) + xEAr'(0,1,0,2,6)(4)(1)(6)
       + xEAr'(0,1,0,2,6)(4)(2)(6) + xEAr'(0,1,0,2,6)(4)(3)(6)
       - xEAr'(0,1,0,2,6)(5)(1)(6)  = 0
 c92:  - xEAr(0,1,0,2,7)(5)(1) + xEAr'(0,1,0,2,7)(4)(1)(7)
       + xEAr'(0,1,0,2,7)(4)(2)(7) + xEAr'(0,1,0,2,7)(4)(3)(7)
       - xEAr'(0,1,0,2,7)(5)(1)(7)  = 0
 c93:  - xEAe(0,1,0,2,5,3)(1) + xEAe'(0,1,0,2,5,3)(1)(5)
       + xEAe'(0,1,0,2,5,3)(2)(5) + xEAe'(0,1,0,2,5,3)(3)(5)
       + xEAe'(0,1,0,2,5,3)(4)(5) + xEAe'(0,1,0,2,5,3)(5)(5)
       + xEAeR(0,1,0,2,5,3)(1)  = 0
 c94:  - xEAe(0,1,0,2,5,3)(2) + xEAe'(0,1,0,2,5,3)(2)(5)
       + xEAe'(0,1,0,2,5,3)(3)(5) + xEAe'(0,1,0,2,5,3)(4)(5)
       + xEAe'(0,1,0,2,5,3)(5)(5) + xEAeR(0,1,0,2,5,3)(2)  = 0
 c95:  - xEAe(0,1,0,2,5,3)(3) + xEAe'(0,1,0,2,5,3)(3)(5)
       + xEAe'(0,1,0,2,5,3)(4)(5) + xEAe'(0,1,0,2,5,3)(5)(5)
       + xEAeR(0,1,0,2,5,3)(3)  = 0
 c96:  - xEAe(0,1,0,2,5,3)(4) + xEAe'(0,1,0,2,5,3)(4)(5)
       + xEAe'(0,1,0,2,5,3)(5)(5) + xEAeR(0,1,0,2,5,3)(4)  = 0
 c97:  - xEAe(0,1,0,2,5,3)(5) + xEAe'(0,1,0,2,5,3)(5)(5)
       + xEAeR(0,1,0,2,5,3)(5)  = 0
 c98:  - xEAr(0,1,0,2,0)(2)(1) + xEAr'(0,1,0,2,0)(2)(1)(0)
       + xEAr'(0,1,0,2,0)(3)(2)(0) + xEAr'(0,1,0,2,0)(4)(3)(0)
       + xEAr'(0,1,0,2,0)(5)(4)(0) + xEArR(0,1,0,2,0)(2)(1)  = 0
 c99:  - xEAr(0,1,0,2,0)(3)(1) + xEAr'(0,1,0,2,0)(3)(1)(0)
       + xEAr'(0,1,0,2,0)(4)(2)(0) + xEAr'(0,1,0,2,0)(5)(3)(0)
       + xEArR(0,1,0,2,0)(3)(1)  = 0
 c100: - xEAr(0,1,0,2,0)(3)(2) + xEAr'(0,1,0,2,0)(3)(2)(0)
       + xEAr'(0,1,0,2,0)(4)(3)(0) + xEAr'(0,1,0,2,0)(5)(4)(0)
       + xEArR(0,1,0,2,0)(3)(2)  = 0
 c101: - xEAr(0,1,0,2,0)(4)(1) + xEAr'(0,1,0,2,0)(4)(1)(0)
       + xEAr'(0,1,0,2,0)(5)(2)(0) + xEArR(0,1,0,2,0)(4)(1)  = 0
 c102: - xEAr(0,1,0,2,0)(4)(2) + xEAr'(0,1,0,2,0)(4)(2)(0)
       + xEAr'(0,1,0,2,0)(5)(3)(0) + xEArR(0,1,0,2,0)(4)(2)  = 0
 c103: - xEAr(0,1,0,2,0)(4)(3) + xEAr'(0,1,0,2,0)(4)(3)(0)
       + xEAr'(0,1,0,2,0)(5)(4)(0) + xEArR(0,1,0,2,0)(4)(3)  = 0
 c104: - xEAr(0,1,0,2,0)(5)(1) + xEAr'(0,1,0,2,0)(5)(1)(0)
       + xEArR(0,1,0,2,0)(5)(1)  = 0
 c105: - xEAr(0,1,0,2,0)(5)(2) + xEAr'(0,1,0,2,0)(5)(2)(0)
       + xEArR(0,1,0,2,0)(5)(2)  = 0
 c106: - xEAr(0,1,0,2,0)(5)(3) + xEAr'(0,1,0,2,0)(5)(3)(0)
       + xEArR(0,1,0,2,0)(5)(3)  = 0
 c107: - xEAr(0,1,0,2,0)(5)(4) + xEAr'(0,1,0,2,0)(5)(4)(0)
       + xEArR(0,1,0,2,0)(5)(4)  = 0
 c108: - xEAr(0,1,0,2,1)(2)(1) + xEAr'(0,1,0,2,1)(2)(1)(1)
       + xEAr'(0,1,0,2,1)(3)(2)(1) + xEAr'(0,1,0,2,1)(4)(3)(1)
       + xEAr'(0,1,0,2,1)(5)(4)(1) + xEArR(0,1,0,2,1)(2)(1)  = 0
 c109: - xEAr(0,1,0,2,1)(3)(1) + xEAr'(0,1,0,2,1)(3)(1)(1)
       + xEAr'(0,1,0,2,1)(4)(2)(1) + xEAr'(0,1,0,2,1)(5)(3)(1)
       + xEArR(0,1,0,2,1)(3)(1)  = 0
 c110: - xEAr(0,1,0,2,1)(3)(2) + xEAr'(0,1,0,2,1)(3)(2)(1)
       + xEAr'(0,1,0,2,1)(4)(3)(1) + xEAr'(0,1,0,2,1)(5)(4)(1)
       + xEArR(0,1,0,2,1)(3)(2)  = 0
 c111: - xEAr(0,1,0,2,1)(4)(1) + xEAr'(0,1,0,2,1)(4)(1)(1)
       + xEAr'(0,1,0,2,1)(5)(2)(1) + xEArR(0,1,0,2,1)(4)(1)  = 0
 c112: - xEAr(0,1,0,2,1)(4)(2) + xEAr'(0,1,0,2,1)(4)(2)(1)
       + xEAr'(0,1,0,2,1)(5)(3)(1) + xEArR(0,1,0,2,1)(4)(2)  = 0
 c113: - xEAr(0,1,0,2,1)(4)(3) + xEAr'(0,1,0,2,1)(4)(3)(1)
       + xEAr'(0,1,0,2,1)(5)(4)(1) + xEArR(0,1,0,2,1)(4)(3)  = 0
 c114: - xEAr(0,1,0,2,1)(5)(1) + xEAr'(0,1,0,2,1)(5)(1)(1)
       + xEArR(0,1,0,2,1)(5)(1)  = 0
 c115: - xEAr(0,1,0,2,1)(5)(2) + xEAr'(0,1,0,2,1)(5)(2)(1)
       + xEArR(0,1,0,2,1)(5)(2)  = 0
 c116: - xEAr(0,1,0,2,1)(5)(3) + xEAr'(0,1,0,2,1)(5)(3)(1)
       + xEArR(0,1,0,2,1)(5)(3)  = 0
 c117: - xEAr(0,1,0,2,1)(5)(4) + xEAr'(0,1,0,2,1)(5)(4)(1)
       + xEArR(0,1,0,2,1)(5)(4)  = 0
 c118: - xEAr(0,1,0,2,2)(2)(1) + xEAr'(0,1,0,2,2)(2)(1)(2)
       + xEAr'(0,1,0,2,2)(3)(2)(2) + xEAr'(0,1,0,2,2)(4)(3)(2)
       + xEAr'(0,1,0,2,2)(5)(4)(2) + xEArR(0,1,0,2,2)(2)(1)  = 0
 c119: - xEAr(0,1,0,2,2)(3)(1) + xEAr'(0,1,0,2,2)(3)(1)(2)
       + xEAr'(0,1,0,2,2)(4)(2)(2) + xEAr'(0,1,0,2,2)(5)(3)(2)
       + xEArR(0,1,0,2,2)(3)(1)  = 0
 c120: - xEAr(0,1,0,2,2)(3)(2) + xEAr'(0,1,0,2,2)(3)(2)(2)
       + xEAr'(0,1,0,2,2)(4)(3)(2) + xEAr'(0,1,0,2,2)(5)(4)(2)
       + xEArR(0,1,0,2,2)(3)(2)  = 0
 c121: - xEAr(0,1,0,2,2)(4)(1) + xEAr'(0,1,0,2,2)(4)(1)(2)
       + xEAr'(0,1,0,2,2)(5)(2)(2) + xEArR(0,1,0,2,2)(4)(1)  = 0
 c122: - xEAr(0,1,0,2,2)(4)(2) + xEAr'(0,1,0,2,2)(4)(2)(2)
       + xEAr'(0,1,0,2,2)(5)(3)(2) + xEArR(0,1,0,2,2)(4)(2)  = 0
 c123: - xEAr(0,1,0,2,2)(4)(3) + xEAr'(0,1,0,2,2)(4)(3)(2)
       + xEAr'(0,1,0,2,2)(5)(4)(2) + xEArR(0,1,0,2,2)(4)(3)  = 0
 c124: - xEAr(0,1,0,2,2)(5)(1) + xEAr'(0,1,0,2,2)(5)(1)(2)
       + xEArR(0,1,0,2,2)(5)(1)  = 0
 c125: - xEAr(0,1,0,2,2)(5)(2) + xEAr'(0,1,0,2,2)(5)(2)(2)
       + xEArR(0,1,0,2,2)(5)(2)  = 0
 c126: - xEAr(0,1,0,2,2)(5)(3) + xEAr'(0,1,0,2,2)(5)(3)(2)
       + xEArR(0,1,0,2,2)(5)(3)  = 0
 c127: - xEAr(0,1,0,2,2)(5)(4) + xEAr'(0,1,0,2,2)(5)(4)(2)
       + xEArR(0,1,0,2,2)(5)(4)  = 0
 c128: - xEAr(0,1,0,2,3)(2)(1) + xEAr'(0,1,0,2,3)(2)(1)(3)
       + xEAr'(0,1,0,2,3)(3)(2)(3) + xEAr'(0,1,0,2,3)(4)(3)(3)
       + xEAr'(0,1,0,2,3)(5)(4)(3) + xEArR(0,1,0,2,3)(2)(1)  = 0
 c129: - xEAr(0,1,0,2,3)(3)(1) + xEAr'(0,1,0,2,3)(3)(1)(3)
       + xEAr'(0,1,0,2,3)(4)(2)(3) + xEAr'(0,1,0,2,3)(5)(3)(3)
       + xEArR(0,1,0,2,3)(3)(1)  = 0
 c130: - xEAr(0,1,0,2,3)(3)(2) + xEAr'(0,1,0,2,3)(3)(2)(3)
       + xEAr'(0,1,0,2,3)(4)(3)(3) + xEAr'(0,1,0,2,3)(5)(4)(3)
       + xEArR(0,1,0,2,3)(3)(2)  = 0
 c131: - xEAr(0,1,0,2,3)(4)(1) + xEAr'(0,1,0,2,3)(4)(1)(3)
       + xEAr'(0,1,0,2,3)(5)(2)(3) + xEArR(0,1,0,2,3)(4)(1)  = 0
 c132: - xEAr(0,1,0,2,3)(4)(2) + xEAr'(0,1,0,2,3)(4)(2)(3)
       + xEAr'(0,1,0,2,3)(5)(3)(3) + xEArR(0,1,0,2,3)(4)(2)  = 0
 c133: - xEAr(0,1,0,2,3)(4)(3) + xEAr'(0,1,0,2,3)(4)(3)(3)
       + xEAr'(0,1,0,2,3)(5)(4)(3) + xEArR(0,1,0,2,3)(4)(3)  = 0
 c134: - xEAr(0,1,0,2,3)(5)(1) + xEAr'(0,1,0,2,3)(5)(1)(3)
       + xEArR(0,1,0,2,3)(5)(1)  = 0
 c135: - xEAr(0,1,0,2,3)(5)(2) + xEAr'(0,1,0,2,3)(5)(2)(3)
       + xEArR(0,1,0,2,3)(5)(2)  = 0
 c136: - xEAr(0,1,0,2,3)(5)(3) + xEAr'(0,1,0,2,3)(5)(3)(3)
       + xEArR(0,1,0,2,3)(5)(3)  = 0
 c137: - xEAr(0,1,0,2,3)(5)(4) + xEAr'(0,1,0,2,3)(5)(4)(3)
       + xEArR(0,1,0,2,3)(5)(4)  = 0
 c138: - xEAr(0,1,0,2,4)(2)(1) + xEAr'(0,1,0,2,4)(2)(1)(4)
       + xEAr'(0,1,0,2,4)(3)(2)(4) + xEAr'(0,1,0,2,4)(4)(3)(4)
       + xEAr'(0,1,0,2,4)(5)(4)(4) + xEArR(0,1,0,2,4)(2)(1)  = 0
 c139: - xEAr(0,1,0,2,4)(3)(1) + xEAr'(0,1,0,2,4)(3)(1)(4)
       + xEAr'(0,1,0,2,4)(4)(2)(4) + xEAr'(0,1,0,2,4)(5)(3)(4)
       + xEArR(0,1,0,2,4)(3)(1)  = 0
 c140: - xEAr(0,1,0,2,4)(3)(2) + xEAr'(0,1,0,2,4)(3)(2)(4)
       + xEAr'(0,1,0,2,4)(4)(3)(4) + xEAr'(0,1,0,2,4)(5)(4)(4)
       + xEArR(0,1,0,2,4)(3)(2)  = 0
 c141: - xEAr(0,1,0,2,4)(4)(1) + xEAr'(0,1,0,2,4)(4)(1)(4)
       + xEAr'(0,1,0,2,4)(5)(2)(4) + xEArR(0,1,0,2,4)(4)(1)  = 0
 c142: - xEAr(0,1,0,2,4)(4)(2) + xEAr'(0,1,0,2,4)(4)(2)(4)
       + xEAr'(0,1,0,2,4)(5)(3)(4) + xEArR(0,1,0,2,4)(4)(2)  = 0
 c143: - xEAr(0,1,0,2,4)(4)(3) + xEAr'(0,1,0,2,4)(4)(3)(4)
       + xEAr'(0,1,0,2,4)(5)(4)(4) + xEArR(0,1,0,2,4)(4)(3)  = 0
 c144: - xEAr(0,1,0,2,4)(5)(1) + xEAr'(0,1,0,2,4)(5)(1)(4)
       + xEArR(0,1,0,2,4)(5)(1)  = 0
 c145: - xEAr(0,1,0,2,4)(5)(2) + xEAr'(0,1,0,2,4)(5)(2)(4)
       + xEArR(0,1,0,2,4)(5)(2)  = 0
 c146: - xEAr(0,1,0,2,4)(5)(3) + xEAr'(0,1,0,2,4)(5)(3)(4)
       + xEArR(0,1,0,2,4)(5)(3)  = 0
 c147: - xEAr(0,1,0,2,4)(5)(4) + xEAr'(0,1,0,2,4)(5)(4)(4)
       + xEArR(0,1,0,2,4)(5)(4)  = 0
 c148: - xEAr(0,1,0,2,5)(2)(1) + xEAr'(0,1,0,2,5)(2)(1)(5)
       + xEAr'(0,1,0,2,5)(3)(2)(5) + xEAr'(0,1,0,2,5)(4)(3)(5)
       + xEAr'(0,1,0,2,5)(5)(4)(5) + xEArR(0,1,0,2,5)(2)(1)  = 0
 c149: - xEAr(0,1,0,2,5)(3)(1) + xEAr'(0,1,0,2,5)(3)(1)(5)
       + xEAr'(0,1,0,2,5)(4)(2)(5) + xEAr'(0,1,0,2,5)(5)(3)(5)
       + xEArR(0,1,0,2,5)(3)(1)  = 0
 c150: - xEAr(0,1,0,2,5)(3)(2) + xEAr'(0,1,0,2,5)(3)(2)(5)
       + xEAr'(0,1,0,2,5)(4)(3)(5) + xEAr'(0,1,0,2,5)(5)(4)(5)
       + xEArR(0,1,0,2,5)(3)(2)  = 0
 c151: - xEAr(0,1,0,2,5)(4)(1) + xEAr'(0,1,0,2,5)(4)(1)(5)
       + xEAr'(0,1,0,2,5)(5)(2)(5) + xEArR(0,1,0,2,5)(4)(1)  = 0
 c152: - xEAr(0,1,0,2,5)(4)(2) + xEAr'(0,1,0,2,5)(4)(2)(5)
       + xEAr'(0,1,0,2,5)(5)(3)(5) + xEArR(0,1,0,2,5)(4)(2)  = 0
 c153: - xEAr(0,1,0,2,5)(4)(3) + xEAr'(0,1,0,2,5)(4)(3)(5)
       + xEAr'(0,1,0,2,5)(5)(4)(5) + xEArR(0,1,0,2,5)(4)(3)  = 0
 c154: - xEAr(0,1,0,2,5)(5)(1) + xEAr'(0,1,0,2,5)(5)(1)(5)
       + xEArR(0,1,0,2,5)(5)(1)  = 0
 c155: - xEAr(0,1,0,2,5)(5)(2) + xEAr'(0,1,0,2,5)(5)(2)(5)
       + xEArR(0,1,0,2,5)(5)(2)  = 0
 c156: - xEAr(0,1,0,2,5)(5)(3) + xEAr'(0,1,0,2,5)(5)(3)(5)
       + xEArR(0,1,0,2,5)(5)(3)  = 0
 c157: - xEAr(0,1,0,2,5)(5)(4) + xEAr'(0,1,0,2,5)(5)(4)(5)
       + xEArR(0,1,0,2,5)(5)(4)  = 0
 c158: - xEAr(0,1,0,2,6)(2)(1) + xEAr'(0,1,0,2,6)(2)(1)(6)
       + xEAr'(0,1,0,2,6)(3)(2)(6) + xEAr'(0,1,0,2,6)(4)(3)(6)
       + xEAr'(0,1,0,2,6)(5)(4)(6) + xEArR(0,1,0,2,6)(2)(1)  = 0
 c159: - xEAr(0,1,0,2,6)(3)(1) + xEAr'(0,1,0,2,6)(3)(1)(6)
       + xEAr'(0,1,0,2,6)(4)(2)(6) + xEAr'(0,1,0,2,6)(5)(3)(6)
       + xEArR(0,1,0,2,6)(3)(1)  = 0
 c160: - xEAr(0,1,0,2,6)(3)(2) + xEAr'(0,1,0,2,6)(3)(2)(6)
       + xEAr'(0,1,0,2,6)(4)(3)(6) + xEAr'(0,1,0,2,6)(5)(4)(6)
       + xEArR(0,1,0,2,6)(3)(2)  = 0
 c161: - xEAr(0,1,0,2,6)(4)(1) + xEAr'(0,1,0,2,6)(4)(1)(6)
       + xEAr'(0,1,0,2,6)(5)(2)(6) + xEArR(0,1,0,2,6)(4)(1)  = 0
 c162: - xEAr(0,1,0,2,6)(4)(2) + xEAr'(0,1,0,2,6)(4)(2)(6)
       + xEAr'(0,1,0,2,6)(5)(3)(6) + xEArR(0,1,0,2,6)(4)(2)  = 0
 c163: - xEAr(0,1,0,2,6)(4)(3) + xEAr'(0,1,0,2,6)(4)(3)(6)
       + xEAr'(0,1,0,2,6)(5)(4)(6) + xEArR(0,1,0,2,6)(4)(3)  = 0
 c164: - xEAr(0,1,0,2,6)(5)(1) + xEAr'(0,1,0,2,6)(5)(1)(6)
       + xEArR(0,1,0,2,6)(5)(1)  = 0
 c165: - xEAr(0,1,0,2,6)(5)(2) + xEAr'(0,1,0,2,6)(5)(2)(6)
       + xEArR(0,1,0,2,6)(5)(2)  = 0
 c166: - xEAr(0,1,0,2,6)(5)(3) + xEAr'(0,1,0,2,6)(5)(3)(6)
       + xEArR(0,1,0,2,6)(5)(3)  = 0
 c167: - xEAr(0,1,0,2,6)(5)(4) + xEAr'(0,1,0,2,6)(5)(4)(6)
       + xEArR(0,1,0,2,6)(5)(4)  = 0
 c168: - xEAr(0,1,0,2,7)(2)(1) + xEAr'(0,1,0,2,7)(2)(1)(7)
       + xEAr'(0,1,0,2,7)(3)(2)(7) + xEAr'(0,1,0,2,7)(4)(3)(7)
       + xEAr'(0,1,0,2,7)(5)(4)(7) + xEArR(0,1,0,2,7)(2)(1)  = 0
 c169: - xEAr(0,1,0,2,7)(3)(1) + xEAr'(0,1,0,2,7)(3)(1)(7)
       + xEAr'(0,1,0,2,7)(4)(2)(7) + xEAr'(0,1,0,2,7)(5)(3)(7)
       + xEArR(0,1,0,2,7)(3)(1)  = 0
 c170: - xEAr(0,1,0,2,7)(3)(2) + xEAr'(0,1,0,2,7)(3)(2)(7)
       + xEAr'(0,1,0,2,7)(4)(3)(7) + xEAr'(0,1,0,2,7)(5)(4)(7)
       + xEArR(0,1,0,2,7)(3)(2)  = 0
 c171: - xEAr(0,1,0,2,7)(4)(1) + xEAr'(0,1,0,2,7)(4)(1)(7)
       + xEAr'(0,1,0,2,7)(5)(2)(7) + xEArR(0,1,0,2,7)(4)(1)  = 0
 c172: - xEAr(0,1,0,2,7)(4)(2) + xEAr'(0,1,0,2,7)(4)(2)(7)
       + xEAr'(0,1,0,2,7)(5)(3)(7) + xEArR(0,1,0,2,7)(4)(2)  = 0
 c173: - xEAr(0,1,0,2,7)(4)(3) + xEAr'(0,1,0,2,7)(4)(3)(7)
       + xEAr'(0,1,0,2,7)(5)(4)(7) + xEArR(0,1,0,2,7)(4)(3)  = 0
 c174: - xEAr(0,1,0,2,7)(5)(1) + xEAr'(0,1,0,2,7)(5)(1)(7)
       + xEArR(0,1,0,2,7)(5)(1)  = 0
 c175: - xEAr(0,1,0,2,7)(5)(2) + xEAr'(0,1,0,2,7)(5)(2)(7)
       + xEArR(0,1,0,2,7)(5)(2)  = 0
 c176: - xEAr(0,1,0,2,7)(5)(3) + xEAr'(0,1,0,2,7)(5)(3)(7)
       + xEArR(0,1,0,2,7)(5)(3)  = 0
 c177: - xEAr(0,1,0,2,7)(5)(4) + xEAr'(0,1,0,2,7)(5)(4)(7)
       + xEArR(0,1,0,2,7)(5)(4)  = 0
 c178: - z(0) + xNG(0,1,0,2,5,3) + xNG(0,1,0,2,5,3) + xNG(0,1,0,2,5,3)
       + xNG(0,1,0,2,5,3) + xNG(0,1,0,2,5,3) + xPB(0,1,0,2,5,3)(0)
       + xPB(0,1,0,2,5,3)(0) + xPB(0,1,0,2,5,3)(0) + xPB(0,1,0,2,5,3)(0)
       + xPB(0,1,0,2,5,3)(0) + xPB(0,1,0,2,5,3)(1) + xPB(0,1,0,2,5,3)(1)
       + xPB(0,1,0,2,5,3)(1) + xPB(0,1,0,2,5,3)(1) + xPB(0,1,0,2,5,3)(1)
       + xPB(0,1,0,2,5,3)(2) + xPB(0,1,0,2,5,3)(2) + xPB(0,1,0,2,5,3)(2)
       + xPB(0,1,0,2,5,3)(2) + xPB(0,1,0,2,5,3)(2) + xPB(0,1,0,2,5,3)(3)
       + xPB(0,1,0,2,5,3)(3) + xPB(0,1,0,2,5,3)(3) + xPB(0,1,0,2,5,3)(3)
       + xPB(0,1,0,2,5,3)(3) + xPB(0,1,0,2,5,3)(4) + xPB(0,1,0,2,5,3)(4)
       + xPB(0,1,0,2,5,3)(4) + xPB(0,1,0,2,5,3)(4) + xPB(0,1,0,2,5,3)(4)  = 0
 c179: - z(1) + xGS(0,1,0,2,5,3)(0) + xGS(0,1,0,2,5,3)(0) + xGS(0,1,0,2,5,3)(0)
       + xGS(0,1,0,2,5,3)(0) + xGS(0,1,0,2,5,3)(0) + xGS(0,1,0,2,5,3)(1)
       + xGS(0,1,0,2,5,3)(1) + xGS(0,1,0,2,5,3)(1) + xGS(0,1,0,2,5,3)(1)
       + xGS(0,1,0,2,5,3)(1) + xGS(0,1,0,2,5,3)(2) + xGS(0,1,0,2,5,3)(2)
       + xGS(0,1,0,2,5,3)(2) + xGS(0,1,0,2,5,3)(2) + xGS(0,1,0,2,5,3)(2)
       + xGS(0,1,0,2,5,3)(3) + xGS(0,1,0,2,5,3)(3) + xGS(0,1,0,2,5,3)(3)
       + xGS(0,1,0,2,5,3)(3) + xGS(0,1,0,2,5,3)(3) + xGS(0,1,0,2,5,3)(4)
       + xGS(0,1,0,2,5,3)(4) + xGS(0,1,0,2,5,3)(4) + xGS(0,1,0,2,5,3)(4)
       + xGS(0,1,0,2,5,3)(4)  = 0
 c180: - y(0) + xEAe'(0,1,0,2,5,3)(1)(5) + xEAe'(0,1,0,2,5,3)(2)(5)
       + xEAe'(0,1,0,2,5,3)(2)(5) + xEAe'(0,1,0,2,5,3)(3)(5)
       + xEAe'(0,1,0,2,5,3)(3)(5) + xEAe'(0,1,0,2,5,3)(3)(5)
       + xEAe'(0,1,0,2,5,3)(4)(5) + xEAe'(0,1,0,2,5,3)(4)(5)
       + xEAe'(0,1,0,2,5,3)(4)(5) + xEAe'(0,1,0,2,5,3)(4)(5)
       + xEAe'(0,1,0,2,5,3)(5)(5) + xEAe'(0,1,0,2,5,3)(5)(5)
       + xEAe'(0,1,0,2,5,3)(5)(5) + xEAe'(0,1,0,2,5,3)(5)(5)
       + xEAe'(0,1,0,2,5,3)(5)(5) + xEAr'(0,1,0,2,0)(2)(1)(0)
       + xEAr'(0,1,0,2,0)(3)(1)(0) + xEAr'(0,1,0,2,0)(3)(1)(0)
       + xEAr'(0,1,0,2,0)(3)(2)(0) + xEAr'(0,1,0,2,0)(3)(2)(0)
       + xEAr'(0,1,0,2,0)(4)(1)(0) + xEAr'(0,1,0,2,0)(4)(1)(0)
       + xEAr'(0,1,0,2,0)(4)(1)(0) + xEAr'(0,1,0,2,0)(4)(2)(0)
       + xEAr'(0,1,0,2,0)(4)(2)(0) + xEAr'(0,1,0,2,0)(4)(2)(0)
       + xEAr'(0,1,0,2,0)(4)(3)(0) + xEAr'(0,1,0,2,0)(4)(3)(0)
       + xEAr'(0,1,0,2,0)(4)(3)(0) + xEAr'(0,1,0,2,0)(5)(1)(0)
       + xEAr'(0,1,0,2,0)(5)(1)(0) + xEAr'(0,1,0,2,0)(5)(1)(0)
       + xEAr'(0,1,0,2,0)(5)(1)(0) + xEAr'(0,1,0,2,0)(5)(2)(0)
       + xEAr'(0,1,0,2,0)(5)(2)(0) + xEAr'(0,1,0,2,0)(5)(2)(0)
       + xEAr'(0,1,0,2,0)(5)(2)(0) + xEAr'(0,1,0,2,0)(5)(3)(0)
       + xEAr'(0,1,0,2,0)(5)(3)(0) + xEAr'(0,1,0,2,0)(5)(3)(0)
       + xEAr'(0,1,0,2,0)(5)(3)(0) + xEAr'(0,1,0,2,0)(5)(4)(0)
       + xEAr'(0,1,0,2,0)(5)(4)(0) + xEAr'(0,1,0,2,0)(5)(4)(0)
       + xEAr'(0,1,0,2,0)(5)(4)(0) + xEAr'(0,1,0,2,1)(2)(1)(1)
       + xEAr'(0,1,0,2,1)(3)(1)(1) + xEAr'(0,1,0,2,1)(3)(1)(1)
       + xEAr'(0,1,0,2,1)(3)(2)(1) + xEAr'(0,1,0,2,1)(3)(2)(1)
       + xEAr'(0,1,0,2,1)(4)(1)(1) + xEAr'(0,1,0,2,1)(4)(1)(1)
       + xEAr'(0,1,0,2,1)(4)(1)(1) + xEAr'(0,1,0,2,1)(4)(2)(1)
       + xEAr'(0,1,0,2,1)(4)(2)(1) + xEAr'(0,1,0,2,1)(4)(2)(1)
       + xEAr'(0,1,0,2,1)(4)(3)(1) + xEAr'(0,1,0,2,1)(4)(3)(1)
       + xEAr'(0,1,0,2,1)(4)(3)(1) + xEAr'(0,1,0,2,1)(5)(1)(1)
       + xEAr'(0,1,0,2,1)(5)(1)(1) + xEAr'(0,1,0,2,1)(5)(1)(1)
       + xEAr'(0,1,0,2,1)(5)(1)(1) + xEAr'(0,1,0,2,1)(5)(2)(1)
       + xEAr'(0,1,0,2,1)(5)(2)(1) + xEAr'(0,1,0,2,1)(5)(2)(1)
       + xEAr'(0,1,0,2,1)(5)(2)(1) + xEAr'(0,1,0,2,1)(5)(3)(1)
       + xEAr'(0,1,0,2,1)(5)(3)(1) + xEAr'(0,1,0,2,1)(5)(3)(1)
       + xEAr'(0,1,0,2,1)(5)(3)(1) + xEAr'(0,1,0,2,1)(5)(4)(1)
       + xEAr'(0,1,0,2,1)(5)(4)(1) + xEAr'(0,1,0,2,1)(5)(4)(1)
       + xEAr'(0,1,0,2,1)(5)(4)(1) + xEAr'(0,1,0,2,2)(2)(1)(2)
       + xEAr'(0,1,0,2,2)(3)(1)(2) + xEAr'(0,1,0,2,2)(3)(1)(2)
       + xEAr'(0,1,0,2,2)(3)(2)(2) + xEAr'(0,1,0,2,2)(3)(2)(2)
       + xEAr'(0,1,0,2,2)(4)(1)(2) + xEAr'(0,1,0,2,2)(4)(1)(2)
       + xEAr'(0,1,0,2,2)(4)(1)(2) + xEAr'(0,1,0,2,2)(4)(2)(2)
       + xEAr'(0,1,0,2,2)(4)(2)(2) + xEAr'(0,1,0,2,2)(4)(2)(2)
       + xEAr'(0,1,0,2,2)(4)(3)(2) + xEAr'(0,1,0,2,2)(4)(3)(2)
       + xEAr'(0,1,0,2,2)(4)(3)(2) + xEAr'(0,1,0,2,2)(5)(1)(2)
       + xEAr'(0,1,0,2,2)(5)(1)(2) + xEAr'(0,1,0,2,2)(5)(1)(2)
       + xEAr'(0,1,0,2,2)(5)(1)(2) + xEAr'(0,1,0,2,2)(5)(2)(2)
       + xEAr'(0,1,0,2,2)(5)(2)(2) + xEAr'(0,1,0,2,2)(5)(2)(2)
       + xEAr'(0,1,0,2,2)(5)(2)(2) + xEAr'(0,1,0,2,2)(5)(3)(2)
       + xEAr'(0,1,0,2,2)(5)(3)(2) + xEAr'(0,1,0,2,2)(5)(3)(2)
       + xEAr'(0,1,0,2,2)(5)(3)(2) + xEAr'(0,1,0,2,2)(5)(4)(2)
       + xEAr'(0,1,0,2,2)(5)(4)(2) + xEAr'(0,1,0,2,2)(5)(4)(2)
       + xEAr'(0,1,0,2,2)(5)(4)(2) + xEAr'(0,1,0,2,3)(2)(1)(3)
       + xEAr'(0,1,0,2,3)(3)(1)(3) + xEAr'(0,1,0,2,3)(3)(1)(3)
       + xEAr'(0,1,0,2,3)(3)(2)(3) + xEAr'(0,1,0,2,3)(3)(2)(3)
       + xEAr'(0,1,0,2,3)(4)(1)(3) + xEAr'(0,1,0,2,3)(4)(1)(3)
       + xEAr'(0,1,0,2,3)(4)(1)(3) + xEAr'(0,1,0,2,3)(4)(2)(3)
       + xEAr'(0,1,0,2,3)(4)(2)(3) + xEAr'(0,1,0,2,3)(4)(2)(3)
       + xEAr'(0,1,0,2,3)(4)(3)(3) + xEAr'(0,1,0,2,3)(4)(3)(3)
       + xEAr'(0,1,0,2,3)(4)(3)(3) + xEAr'(0,1,0,2,3)(5)(1)(3)
       + xEAr'(0,1,0,2,3)(5)(1)(3) + xEAr'(0,1,0,2,3)(5)(1)(3)
       + xEAr'(0,1,0,2,3)(5)(1)(3) + xEAr'(0,1,0,2,3)(5)(2)(3)
       + xEAr'(0,1,0,2,3)(5)(2)(3) + xEAr'(0,1,0,2,3)(5)(2)(3)
       + xEAr'(0,1,0,2,3)(5)(2)(3) + xEAr'(0,1,0,2,3)(5)(3)(3)
       + xEAr'(0,1,0,2,3)(5)(3)(3) + xEAr'(0,1,0,2,3)(5)(3)(3)
       + xEAr'(0,1,0,2,3)(5)(3)(3) + xEAr'(0,1,0,2,3)(5)(4)(3)
       + xEAr'(0,1,0,2,3)(5)(4)(3) + xEAr'(0,1,0,2,3)(5)(4)(3)
       + xEAr'(0,1,0,2,3)(5)(4)(3) + xEAr'(0,1,0,2,4)(2)(1)(4)
       + xEAr'(0,1,0,2,4)(3)(1)(4) + xEAr'(0,1,0,2,4)(3)(1)(4)
       + xEAr'(0,1,0,2,4)(3)(2)(4) + xEAr'(0,1,0,2,4)(3)(2)(4)
       + xEAr'(0,1,0,2,4)(4)(1)(4) + xEAr'(0,1,0,2,4)(4)(1)(4)
       + xEAr'(0,1,0,2,4)(4)(1)(4) + xEAr'(0,1,0,2,4)(4)(2)(4)
       + xEAr'(0,1,0,2,4)(4)(2)(4) + xEAr'(0,1,0,2,4)(4)(2)(4)
       + xEAr'(0,1,0,2,4)(4)(3)(4) + xEAr'(0,1,0,2,4)(4)(3)(4)
       + xEAr'(0,1,0,2,4)(4)(3)(4) + xEAr'(0,1,0,2,4)(5)(1)(4)
       + xEAr'(0,1,0,2,4)(5)(1)(4) + xEAr'(0,1,0,2,4)(5)(1)(4)
       + xEAr'(0,1,0,2,4)(5)(1)(4) + xEAr'(0,1,0,2,4)(5)(2)(4)
       + xEAr'(0,1,0,2,4)(5)(2)(4) + xEAr'(0,1,0,2,4)(5)(2)(4)
       + xEAr'(0,1,0,2,4)(5)(2)(4) + xEAr'(0,1,0,2,4)(5)(3)(4)
       + xEAr'(0,1,0,2,4)(5)(3)(4) + xEAr'(0,1,0,2,4)(5)(3)(4)
       + xEAr'(0,1,0,2,4)(5)(3)(4) + xEAr'(0,1,0,2,4)(5)(4)(4)
       + xEAr'(0,1,0,2,4)(5)(4)(4) + xEAr'(0,1,0,2,4)(5)(4)(4)
       + xEAr'(0,1,0,2,4)(5)(4)(4) + xEAr'(0,1,0,2,5)(2)(1)(5)
       + xEAr'(0,1,0,2,5)(3)(1)(5) + xEAr'(0,1,0,2,5)(3)(1)(5)
       + xEAr'(0,1,0,2,5)(3)(2)(5) + xEAr'(0,1,0,2,5)(3)(2)(5)
       + xEAr'(0,1,0,2,5)(4)(1)(5) + xEAr'(0,1,0,2,5)(4)(1)(5)
       + xEAr'(0,1,0,2,5)(4)(1)(5) + xEAr'(0,1,0,2,5)(4)(2)(5)
       + xEAr'(0,1,0,2,5)(4)(2)(5) + xEAr'(0,1,0,2,5)(4)(2)(5)
       + xEAr'(0,1,0,2,5)(4)(3)(5) + xEAr'(0,1,0,2,5)(4)(3)(5)
       + xEAr'(0,1,0,2,5)(4)(3)(5) + xEAr'(0,1,0,2,5)(5)(1)(5)
       + xEAr'(0,1,0,2,5)(5)(1)(5) + xEAr'(0,1,0,2,5)(5)(1)(5)
       + xEAr'(0,1,0,2,5)(5)(1)(5) + xEAr'(0,1,0,2,5)(5)(2)(5)
       + xEAr'(0,1,0,2,5)(5)(2)(5) + xEAr'(0,1,0,2,5)(5)(2)(5)
       + xEAr'(0,1,0,2,5)(5)(2)(5) + xEAr'(0,1,0,2,5)(5)(3)(5)
       + xEAr'(0,1,0,2,5)(5)(3)(5) + xEAr'(0,1,0,2,5)(5)(3)(5)
       + xEAr'(0,1,0,2,5)(5)(3)(5) + xEAr'(0,1,0,2,5)(5)(4)(5)
       + xEAr'(0,1,0,2,5)(5)(4)(5) + xEAr'(0,1,0,2,5)(5)(4)(5)
       + xEAr'(0,1,0,2,5)(5)(4)(5) + xEAr'(0,1,0,2,6)(2)(1)(6)
       + xEAr'(0,1,0,2,6)(3)(1)(6) + xEAr'(0,1,0,2,6)(3)(1)(6)
       + xEAr'(0,1,0,2,6)(3)(2)(6) + xEAr'(0,1,0,2,6)(3)(2)(6)
       + xEAr'(0,1,0,2,6)(4)(1)(6) + xEAr'(0,1,0,2,6)(4)(1)(6)
       + xEAr'(0,1,0,2,6)(4)(1)(6) + xEAr'(0,1,0,2,6)(4)(2)(6)
       + xEAr'(0,1,0,2,6)(4)(2)(6) + xEAr'(0,1,0,2,6)(4)(2)(6)
       + xEAr'(0,1,0,2,6)(4)(3)(6) + xEAr'(0,1,0,2,6)(4)(3)(6)
       + xEAr'(0,1,0,2,6)(4)(3)(6) + xEAr'(0,1,0,2,6)(5)(1)(6)
       + xEAr'(0,1,0,2,6)(5)(1)(6) + xEAr'(0,1,0,2,6)(5)(1)(6)
       + xEAr'(0,1,0,2,6)(5)(1)(6) + xEAr'(0,1,0,2,6)(5)(2)(6)
       + xEAr'(0,1,0,2,6)(5)(2)(6) + xEAr'(0,1,0,2,6)(5)(2)(6)
       + xEAr'(0,1,0,2,6)(5)(2)(6) + xEAr'(0,1,0,2,6)(5)(3)(6)
       + xEAr'(0,1,0,2,6)(5)(3)(6) + xEAr'(0,1,0,2,6)(5)(3)(6)
       + xEAr'(0,1,0,2,6)(5)(3)(6) + xEAr'(0,1,0,2,6)(5)(4)(6)
       + xEAr'(0,1,0,2,6)(5)(4)(6) + xEAr'(0,1,0,2,6)(5)(4)(6)
       + xEAr'(0,1,0,2,6)(5)(4)(6) + xEAr'(0,1,0,2,7)(2)(1)(7)
       + xEAr'(0,1,0,2,7)(3)(1)(7) + xEAr'(0,1,0,2,7)(3)(1)(7)
       + xEAr'(0,1,0,2,7)(3)(2)(7) + xEAr'(0,1,0,2,7)(3)(2)(7)
       + xEAr'(0,1,0,2,7)(4)(1)(7) + xEAr'(0,1,0,2,7)(4)(1)(7)
       + xEAr'(0,1,0,2,7)(4)(1)(7) + xEAr'(0,1,0,2,7)(4)(2)(7)
       + xEAr'(0,1,0,2,7)(4)(2)(7) + xEAr'(0,1,0,2,7)(4)(2)(7)
       + xEAr'(0,1,0,2,7)(4)(3)(7) + xEAr'(0,1,0,2,7)(4)(3)(7)
       + xEAr'(0,1,0,2,7)(4)(3)(7) + xEAr'(0,1,0,2,7)(5)(1)(7)
       + xEAr'(0,1,0,2,7)(5)(1)(7) + xEAr'(0,1,0,2,7)(5)(1)(7)
       + xEAr'(0,1,0,2,7)(5)(1)(7) + xEAr'(0,1,0,2,7)(5)(2)(7)
       + xEAr'(0,1,0,2,7)(5)(2)(7) + xEAr'(0,1,0,2,7)(5)(2)(7)
       + xEAr'(0,1,0,2,7)(5)(2)(7) + xEAr'(0,1,0,2,7)(5)(3)(7)
       + xEAr'(0,1,0,2,7)(5)(3)(7) + xEAr'(0,1,0,2,7)(5)(3)(7)
       + xEAr'(0,1,0,2,7)(5)(3)(7) + xEAr'(0,1,0,2,7)(5)(4)(7)
       + xEAr'(0,1,0,2,7)(5)(4)(7) + xEAr'(0,1,0,2,7)(5)(4)(7)
       + xEAr'(0,1,0,2,7)(5)(4)(7)  = 0
Bounds
 0 <= l(0) <= 336
      z(0) = 0
      z(1) = 0
 0 <= Rgc2 <= 400
End
